1	4	42
1	20	39
2	5	46
2	16	18
2	20	23
2	20	45
2	19	5
2	4	46
3	11	48
3	19	18
3	13	27
4	14	8
4	2	46
4	1	42
4	9	14
5	13	29
5	2	46
6	8	28
7	10	1
7	11	43
8	14	28
8	6	28
9	4	14
10	19	2
10	7	1
11	7	43
11	16	46
11	3	48
12	18	43
12	17	29
12	14	2
13	3	27
13	18	49
13	5	29
14	12	2
14	4	8
14	8	28
15	20	0
16	11	46
16	2	18
16	18	25
17	12	29
18	13	49
18	16	25
18	12	43
19	3	18
19	2	5
19	10	2
20	2	23
20	2	45
20	1	39
20	15	0
